Results/Experiment 1 Results/New Benchmark/RES_40/output_p1_0.50_p2_0.00_n_40_14.txt
solutions: 0 nodes: 0  modelTime: 138  solveTime: 9  totalTime: 150  modelSize: 7357  readTime: 3 matchingSize: 0
