Results/Experiment 2 Results/New Benchmark/output_p1_0.50_p2_0.00_n_40_14.lp
clingo version 5.4.0
Reading from tempSRTISolver.lp ...
Solving...
Answer: 1
matched(3,2) matched(2,3) matched(5,4) matched(4,5) matched(7,6) matched(6,7) matched(1,8) matched(8,1) matched(11,10) matched(10,11) matched(9,12) matched(12,9) matched(18,14) matched(19,15) matched(17,16) matched(16,17) matched(14,18) matched(15,19) matched(13,20) matched(20,13) matched(26,22) matched(27,23) matched(25,24) matched(24,25) matched(22,26) matched(23,27) matched(21,28) matched(28,21) matched(31,30) matched(30,31) matched(29,32) matched(32,29) matched(38,34) matched(39,35) matched(37,36) matched(36,37) matched(34,38) matched(35,39) matched(33,40) matched(40,33)
Optimization: 376
Answer: 2
matched(3,2) matched(2,3) matched(5,4) matched(4,5) matched(7,6) matched(6,7) matched(1,8) matched(8,1) matched(11,10) matched(10,11) matched(9,12) matched(12,9) matched(18,14) matched(19,15) matched(17,16) matched(16,17) matched(14,18) matched(15,19) matched(13,20) matched(20,13) matched(26,22) matched(27,23) matched(21,24) matched(28,25) matched(22,26) matched(23,27) matched(25,28) matched(24,21) matched(31,30) matched(30,31) matched(29,32) matched(32,29) matched(38,34) matched(39,35) matched(37,36) matched(36,37) matched(34,38) matched(35,39) matched(33,40) matched(40,33)
Optimization: 365
Answer: 3
matched(3,2) matched(2,3) matched(5,4) matched(4,5) matched(7,6) matched(6,7) matched(1,8) matched(8,1) matched(11,10) matched(10,11) matched(9,12) matched(12,9) matched(15,14) matched(14,15) matched(13,16) matched(20,17) matched(19,18) matched(18,19) matched(17,20) matched(16,13) matched(26,22) matched(27,23) matched(21,24) matched(28,25) matched(22,26) matched(23,27) matched(25,28) matched(24,21) matched(31,30) matched(30,31) matched(29,32) matched(32,29) matched(38,34) matched(39,35) matched(37,36) matched(36,37) matched(34,38) matched(35,39) matched(33,40) matched(40,33)
Optimization: 362
Answer: 4
matched(3,2) matched(2,3) matched(5,4) matched(4,5) matched(7,6) matched(6,7) matched(1,8) matched(8,1) matched(11,10) matched(10,11) matched(9,12) matched(12,9) matched(18,14) matched(19,15) matched(13,16) matched(20,17) matched(14,18) matched(15,19) matched(17,20) matched(16,13) matched(26,22) matched(27,23) matched(21,24) matched(28,25) matched(22,26) matched(23,27) matched(25,28) matched(24,21) matched(31,30) matched(30,31) matched(29,32) matched(32,29) matched(38,34) matched(39,35) matched(37,36) matched(36,37) matched(34,38) matched(35,39) matched(33,40) matched(40,33)
Optimization: 361
Answer: 5
matched(6,2) matched(7,3) matched(1,4) matched(8,5) matched(2,6) matched(3,7) matched(5,8) matched(4,1) matched(12,10) matched(9,11) matched(10,12) matched(11,9) matched(18,14) matched(19,15) matched(13,16) matched(20,17) matched(14,18) matched(15,19) matched(17,20) matched(16,13) matched(26,22) matched(27,23) matched(21,24) matched(28,25) matched(22,26) matched(23,27) matched(25,28) matched(24,21) matched(31,30) matched(30,31) matched(29,32) matched(32,29) matched(35,34) matched(34,35) matched(33,36) matched(40,37) matched(39,38) matched(38,39) matched(37,40) matched(36,33)
Optimization: 357
Answer: 6
matched(4,2) matched(5,3) matched(2,4) matched(3,5) matched(7,6) matched(6,7) matched(1,8) matched(8,1) matched(11,10) matched(10,11) matched(9,12) matched(12,9) matched(18,14) matched(19,15) matched(13,16) matched(20,17) matched(14,18) matched(15,19) matched(17,20) matched(16,13) matched(26,22) matched(27,23) matched(21,24) matched(28,25) matched(22,26) matched(23,27) matched(25,28) matched(24,21) matched(31,30) matched(30,31) matched(29,32) matched(32,29) matched(36,34) matched(37,35) matched(34,36) matched(35,37) matched(39,38) matched(38,39) matched(33,40) matched(40,33)
Optimization: 355
Answer: 7
matched(4,2) matched(5,3) matched(2,4) matched(3,5) matched(7,6) matched(6,7) matched(1,8) matched(8,1) matched(12,10) matched(9,11) matched(10,12) matched(11,9) matched(18,14) matched(19,15) matched(13,16) matched(20,17) matched(14,18) matched(15,19) matched(17,20) matched(16,13) matched(26,22) matched(27,23) matched(21,24) matched(28,25) matched(22,26) matched(23,27) matched(25,28) matched(24,21) matched(31,30) matched(30,31) matched(29,32) matched(32,29) matched(36,34) matched(37,35) matched(34,36) matched(35,37) matched(39,38) matched(38,39) matched(33,40) matched(40,33)
Optimization: 354
Answer: 8
matched(4,2) matched(5,3) matched(2,4) matched(3,5) matched(7,6) matched(6,7) matched(1,8) matched(8,1) matched(12,10) matched(9,11) matched(10,12) matched(11,9) matched(15,14) matched(14,15) matched(13,16) matched(20,17) matched(19,18) matched(18,19) matched(17,20) matched(16,13) matched(26,22) matched(27,23) matched(21,24) matched(28,25) matched(22,26) matched(23,27) matched(25,28) matched(24,21) matched(31,30) matched(30,31) matched(29,32) matched(32,29) matched(38,34) matched(39,35) matched(33,36) matched(40,37) matched(34,38) matched(35,39) matched(37,40) matched(36,33)
Optimization: 352
Answer: 9
matched(4,2) matched(5,3) matched(2,4) matched(3,5) matched(7,6) matched(6,7) matched(1,8) matched(8,1) matched(12,10) matched(9,11) matched(10,12) matched(11,9) matched(18,14) matched(19,15) matched(13,16) matched(20,17) matched(14,18) matched(15,19) matched(17,20) matched(16,13) matched(26,22) matched(27,23) matched(21,24) matched(28,25) matched(22,26) matched(23,27) matched(25,28) matched(24,21) matched(31,30) matched(30,31) matched(29,32) matched(32,29) matched(38,34) matched(39,35) matched(33,36) matched(40,37) matched(34,38) matched(35,39) matched(37,40) matched(36,33)
Optimization: 351
OPTIMUM FOUND

Models       : 9
  Optimum    : yes
Optimization : 351
Calls        : 1
Time         : 0.189s (Solving: 0.10s 1st Model: 0.00s Unsat: 0.07s)
CPU Time     : 0.189s
